
Gurobi 9.0.0 (linux64) logging started Mon Jan 20 11:01:09 2020


Gurobi 9.0.0 (linux64) logging started Mon Jan 20 11:04:01 2020


Gurobi 9.0.0 (linux64) logging started Mon Jan 20 11:06:05 2020


Gurobi 9.0.0 (linux64) logging started Mon Jan 20 11:11:20 2020


Gurobi 9.0.0 (linux64) logging started Mon Jan 20 11:28:00 2020


Gurobi 9.0.0 (linux64) logging started Mon Jan 20 16:01:50 2020


Gurobi 9.0.0 (linux64) logging started Mon Jan 20 16:06:24 2020


Gurobi 9.0.0 (linux64) logging started Mon Jan 20 16:13:54 2020


Gurobi 9.0.0 (linux64) logging started Mon Jan 20 16:14:27 2020


Gurobi 9.0.0 (linux64) logging started Mon Jan 20 16:25:06 2020


Gurobi 9.0.0 (linux64) logging started Wed Jan 22 17:00:49 2020


Gurobi 9.0.0 (linux64) logging started Wed Jan 22 17:05:31 2020


Gurobi 9.0.0 (linux64) logging started Wed Jan 22 17:08:00 2020


Gurobi 9.0.0 (linux64) logging started Wed Jan 22 17:26:27 2020


Gurobi 9.0.0 (linux64) logging started Wed Jan 22 17:39:41 2020


Gurobi 9.0.0 (linux64) logging started Wed Jan 22 18:22:52 2020


Gurobi 9.0.0 (linux64) logging started Thu Jan 23 11:33:21 2020


Gurobi 9.0.0 (linux64) logging started Thu Jan 23 11:34:53 2020


Gurobi 9.0.0 (linux64) logging started Thu Jan 23 11:38:55 2020


Gurobi 9.0.0 (linux64) logging started Thu Jan 23 11:41:16 2020


Gurobi 9.0.0 (linux64) logging started Thu Jan 23 11:47:22 2020


Gurobi 9.0.0 (linux64) logging started Thu Jan 23 12:14:01 2020


Gurobi 9.0.0 (linux64) logging started Thu Jan 23 12:15:24 2020


Gurobi 9.0.0 (linux64) logging started Thu Jan 23 15:02:51 2020


Gurobi 9.0.0 (linux64) logging started Thu Jan 23 15:27:11 2020


Gurobi 9.0.0 (linux64) logging started Thu Jan 23 16:15:59 2020


Gurobi 9.0.0 (linux64) logging started Thu Jan 23 16:24:50 2020


Gurobi 9.0.0 (linux64) logging started Thu Jan 23 16:26:21 2020


Gurobi 9.0.0 (linux64) logging started Thu Jan 23 16:27:15 2020


Gurobi 9.0.0 (linux64) logging started Thu Jan 23 16:34:13 2020


Gurobi 9.0.0 (linux64) logging started Thu Jan 23 16:41:52 2020


Gurobi 9.0.0 (linux64) logging started Thu Jan 23 16:46:53 2020


Gurobi 9.0.0 (linux64) logging started Thu Jan 23 16:51:43 2020

